AES/1_5_4/ssaes_r1-20_c5_rw1_e4_f0_k1-20_aes_min_box_aes_mc_bidirectional/ExperimentMinisat_r11_k7cnf_2011-10-29-190052/Result
WARNING: for repeatability, setting FPU to use double precision
============================[ Problem Statistics ]=============================
|                                                                             |
|  Number of variables:          1028                                         |
|  Number of clauses:            4172                                         |
|  Parse time:                   0.00 s                                       |
|  Eliminated clauses:           0.01 Mb                                      |
|  Simplification time:          0.00 s                                       |
|                                                                             |
=============================[ Search Statistics ]==============================
| Conflicts  |          ORIGINAL         |          LEARNT          | Progress |
|            |    Vars  Clauses Literals |    Limit  Clauses Lit/Cl |          |
================================================================================
|        100 |     704     3172    10532 |     1163      100     13 |  8.171 % |
|        250 |     704     3172    10532 |     1279      250     14 |  8.171 % |
|        475 |     704     3172    10532 |     1407      475     15 |  8.171 % |
|        812 |     704     3172    10532 |     1548      812     16 |  8.171 % |
|       1318 |     704     3172    10532 |     1702     1318     18 |  8.171 % |
|       2077 |     704     3172    10532 |     1873     1174     16 |  8.171 % |
|       3216 |     704     3172    10532 |     2060     1328     15 |  8.171 % |
|       4924 |     704     3172    10532 |     2266     1935     17 |  8.171 % |
|       7486 |     704     3172    10532 |     2493     2124     16 |  8.171 % |
|      11330 |     704     3172    10532 |     2742     2032     14 |  8.171 % |
|      17096 |     704     3172    10532 |     3016     2029     14 |  8.171 % |
|      25745 |     704     3172    10532 |     3318     2838     18 |  8.171 % |
|      38719 |     704     3172    10532 |     3650     2052     14 |  8.171 % |
|      58180 |     704     3172    10532 |     4015     2633     16 |  8.171 % |
|      87372 |     704     3172    10532 |     4416     2867     18 |  8.171 % |
|     131161 |     704     3172    10532 |     4858     3514     18 |  8.171 % |
|     196845 |     704     3172    10532 |     5344     4393     19 |  8.171 % |
|     295371 |     704     3172    10532 |     5878     4477     20 |  8.171 % |
===============================================================================
restarts              : 956
conflicts             : 396858         (15351 /sec)
decisions             : 438728         (0.00 % random) (16970 /sec)
propagations          : 127929031      (4948311 /sec)
conflict literals     : 9525511        (45.86 % deleted)
Memory used           : 8.00 MB
CPU time              : 25.8531 s

SATISFIABLE
